Optimal - objective value 2142.00000000
      0 y_0_4                    1                     359
      2 y_1_4                    1                     455
      3 y_1_6                    1                     445
      7 y_4_8                    1                     883
     13 f_0_0_4_0                1                       0
     18 f_0_4_1_1                1                       0
     28 f_1_8_4_0                2                       0
     30 f_1_4_0_1                2                       0
     42 f_2_6_1_0                3                       0
     46 f_2_1_4_1                3                       0
